
#(C) 2017 by FIZ Karlsruhe - Leibniz Institute for Information Infrastructure.  All rights reserved.
data_97550-ICSD
_database_code_ICSD 97550
_audit_creation_date 2004-10-01
_chemical_name_systematic 'Gallium phosphate(V)'
_chemical_formula_structural 'Ga (P O4)'
_chemical_formula_sum 'Ga1 O4 P1'
_chemical_name_structure_type AlPO4(C2221)
_exptl_crystal_density_diffrn 3.27
_cell_measurement_temperature 298.
_publ_section_title

;
Preparation, phase transition and thermal expansion studies on
low-cristobalite type Al1-x Gax P O4 (x = 0.0, 0.20, 0.50, 0.80 and1.00)
;
loop_
_citation_id
_citation_journal_full
_citation_year
_citation_journal_volume
_citation_page_first
_citation_page_last
_citation_journal_id_ASTM
primary 'Journal of Solid State Chemistry' 2003 176 37 46 JSSCBI
loop_
_publ_author_name
'Achary, S.N.'
'Jayakumar, O.D.'
'Tyagi, A.K.'
'Kulshreshtha, S.K.'
_cell_length_a 6.9876(5)
_cell_length_b 6.9624(5)
_cell_length_c 6.8774(4)
_cell_angle_alpha 90
_cell_angle_beta 90
_cell_angle_gamma 90
_cell_volume 334.59
_cell_formula_units_Z 4
_symmetry_space_group_name_H-M 'C 2 2 21'
_symmetry_Int_Tables_number 20
_refine_ls_R_factor_all 0.074
loop_
_symmetry_equiv_pos_site_id
_symmetry_equiv_pos_as_xyz
1 '-x, y, -z+1/2'
2 '-x, -y, z+1/2'
3 'x, -y, -z'
4 'x, y, z'
5 '-x+1/2, y+1/2, -z+1/2'
6 '-x+1/2, -y+1/2, z+1/2'
7 'x+1/2, -y+1/2, -z'
8 'x+1/2, y+1/2, z'
loop_
_atom_type_symbol
_atom_type_oxidation_number
Ga3+ 3
P5+ 5
O2- -2
loop_
_atom_site_label
_atom_site_type_symbol
_atom_site_symmetry_multiplicity
_atom_site_Wyckoff_symbol
_atom_site_fract_x
_atom_site_fract_y
_atom_site_fract_z
_atom_site_B_iso_or_equiv
_atom_site_occupancy
_atom_site_attached_hydrogens
Ga1 Ga3+ 4 b 0 0.186(1) 0.25 1.7(1) 1. 0
P1 P5+ 4 a 0.316(2) 0 0 1.1(4) 1. 0
O1 O2- 8 c 0.202(2) 0.026(2) 0.187(2) 1.61 1. 0
O2 O2- 8 c 0.441(2) 0.171(2) 0.969(2) 1.61 1. 0
#End of TTdata_97550-ICSD