
#(C) 2017 by FIZ Karlsruhe - Leibniz Institute for Information Infrastructure.  All rights reserved.
data_73450-ICSD
_database_code_ICSD 73450
_audit_creation_date 1994-06-30
_chemical_name_systematic 'Potassium tetrafluoroniccolate'
_chemical_formula_structural 'K2 (Ni F4)'
_chemical_formula_sum 'F4 K2 Ni1'
_chemical_name_structure_type K2MgF4
_exptl_crystal_density_diffrn 3.35
_cell_measurement_temperature 300.
_publ_section_title

;
Electron-density distribution in a crystal of Dipotassium
tetrafluoronickelate, K2NiF4
;
loop_
_citation_id
_citation_journal_full
_citation_year
_citation_journal_volume
_citation_page_first
_citation_page_last
_citation_journal_id_ASTM
primary 'Acta Crystallographica, Section B: Structural Science' 1993 49 806 811
ASBSDK
loop_
_publ_author_name
'Yeh, S.K.'
'Wu, S.Y.'
'Lee, C.-S.'
'Wang, Y.'
_cell_length_a 4.0130(6)
_cell_length_b 4.0130(6)
_cell_length_c 13.088(2)
_cell_angle_alpha 90.
_cell_angle_beta 90.
_cell_angle_gamma 90.
_cell_volume 210.77
_cell_formula_units_Z 2
_symmetry_space_group_name_H-M 'I 4/m m m'
_symmetry_Int_Tables_number 139
_refine_ls_R_factor_all 0.018
loop_
_symmetry_equiv_pos_site_id
_symmetry_equiv_pos_as_xyz
1 'y, x, -z'
2 '-y, -x, -z'
3 '-y, x, -z'
4 'y, -x, -z'
5 '-x, y, -z'
6 'x, -y, -z'
7 'x, y, -z'
8 '-x, -y, -z'
9 '-y, -x, z'
10 'y, x, z'
11 'y, -x, z'
12 '-y, x, z'
13 'x, -y, z'
14 '-x, y, z'
15 '-x, -y, z'
16 'x, y, z'
17 'y+1/2, x+1/2, -z+1/2'
18 '-y+1/2, -x+1/2, -z+1/2'
19 '-y+1/2, x+1/2, -z+1/2'
20 'y+1/2, -x+1/2, -z+1/2'
21 '-x+1/2, y+1/2, -z+1/2'
22 'x+1/2, -y+1/2, -z+1/2'
23 'x+1/2, y+1/2, -z+1/2'
24 '-x+1/2, -y+1/2, -z+1/2'
25 '-y+1/2, -x+1/2, z+1/2'
26 'y+1/2, x+1/2, z+1/2'
27 'y+1/2, -x+1/2, z+1/2'
28 '-y+1/2, x+1/2, z+1/2'
29 'x+1/2, -y+1/2, z+1/2'
30 '-x+1/2, y+1/2, z+1/2'
31 '-x+1/2, -y+1/2, z+1/2'
32 'x+1/2, y+1/2, z+1/2'
loop_
_atom_type_symbol
_atom_type_oxidation_number
K1+ 1
Ni2+ 2
F1- -1
loop_
_atom_site_label
_atom_site_type_symbol
_atom_site_symmetry_multiplicity
_atom_site_Wyckoff_symbol
_atom_site_fract_x
_atom_site_fract_y
_atom_site_fract_z
_atom_site_B_iso_or_equiv
_atom_site_occupancy
_atom_site_attached_hydrogens
K1 K1+ 4 e 0 0 0.35377(2) . 1. 0
Ni1 Ni2+ 2 a 0 0 0 . 1. 0
F1 F1- 4 c 0 0.5 0 . 1. 0
F2 F1- 4 e 0 0 0.15331(7) . 1. 0
loop_
_atom_site_aniso_label
_atom_site_aniso_type_symbol
_atom_site_aniso_U_11
_atom_site_aniso_U_22
_atom_site_aniso_U_33
_atom_site_aniso_U_12
_atom_site_aniso_U_13
_atom_site_aniso_U_23
K1 K1+ 0.01628(7) 0.01628(7) 0.01214(9) 0 0 0
Ni1 Ni2+ 0.00672(4) 0.00672(4) 0.00834(5) 0 0 0
F1 F1- 0.0155(3) 0.0075(2) 0.0182(3) 0 0 0
F2 F1- 0.0195(2) 0.0195(2) 0.0096(2) 0 0 0
#End of TTdata_73450-ICSD