
#(C) 2018 by FIZ Karlsruhe - Leibniz Institute for Information Infrastructure.  All rights reserved.
data_172997-ICSD
_database_code_ICSD 172997
_audit_creation_date 2008-02-01
_chemical_name_systematic 'Pentacalcium tris(vanadate(V)) fluoride'
_chemical_formula_structural 'Ca5 (V O4)3 F'
_chemical_formula_sum 'Ca5 F1 O12 V3'
_chemical_name_structure_type Apatite#-(TC,P1-)
_chemical_name_mineral Apatite-(CaF)
_exptl_crystal_density_diffrn 3.28
_publ_section_title 'Triclinic apatites'
loop_
_citation_id
_citation_journal_full
_citation_year
_citation_journal_volume
_citation_page_first
_citation_page_last
_citation_journal_id_ASTM
primary 'Acta Crystallographica, Section B: Structural Science' 2007 63 251 256
ASBSDK
loop_
_publ_author_name
'Baikie, T.'
'Mercier, P.H.J.'
'Elcombe, M.M.'
'Kim, J.Y.'
'le Page, Y.'
'Mitchell, L.D.'
'White, T.J.'
'Whitfield, P.S.'
_cell_length_a 9.6987(3)
_cell_length_b 9.6933(3)
_cell_length_c 7.0170(2)
_cell_angle_alpha 90.637(3)
_cell_angle_beta 89.172(3)
_cell_angle_gamma 120.136(2)
_cell_volume 570.45
_cell_formula_units_Z 2
_symmetry_space_group_name_H-M 'P -1'
_symmetry_Int_Tables_number 2
loop_
_symmetry_equiv_pos_site_id
_symmetry_equiv_pos_as_xyz
1 '-x, -y, -z'
2 'x, y, z'
loop_
_atom_type_symbol
_atom_type_oxidation_number
Ca2+ 2
V5+ 5
O2- -2
F1- -1
loop_
_atom_site_label
_atom_site_type_symbol
_atom_site_symmetry_multiplicity
_atom_site_Wyckoff_symbol
_atom_site_fract_x
_atom_site_fract_y
_atom_site_fract_z
_atom_site_B_iso_or_equiv
_atom_site_occupancy
_atom_site_attached_hydrogens
Ca1 Ca2+ 2 i 0.244(2) 0.004(2) 0.250(2) . 1 0
Ca2 Ca2+ 2 i 0.001(2) 0.245(2) 0.261(2) . 1 0
Ca3 Ca2+ 2 i 0.762(2) 0.7690(10) 0.244(2) . 1 0
Ca4 Ca2+ 2 i 0.339(2) 0.654(2) 0.000(2) . 1 0
Ca5 Ca2+ 2 i 0.336(2) 0.677(2) 0.497(2) . 1 0
V1 V5+ 2 i 0.396(2) 0.373(2) 0.257(2) . 1 0
V2 V5+ 2 i 0.633(2) 0.026(2) 0.248(2) . 1 0
V3 V5+ 2 i 0.970(2) 0.602(2) 0.240(2) . 1 0
O1 O2- 2 i 0.3100(10) 0.4860(10) 0.267(2) . 1 0
O2 O2- 2 i 0.5100(10) 0.8270(10) 0.249(2) . 1 0
O3 O2- 2 i 0.176(2) 0.689(2) 0.230(2) . 1 0
O4 O2- 2 i 0.604(2) 0.4740(10) 0.270(2) . 1 0
O5 O2- 2 i 0.5270(10) 0.1290(10) 0.2240(10) . 1 0
O6 O2- 2 i 0.870(2) 0.404(2) 0.271(2) . 1 0
O7 O2- 2 i 0.3420(10) 0.256(2) 0.064(2) . 1 0
O8 O2- 2 i 0.765(2) 0.0740(10) 0.071(2) . 1 0
O9 O2- 2 i 0.901(2) 0.6470(10) 0.049(2) . 1 0
O10 O2- 2 i 0.662(2) 0.758(2) 0.555(2) . 1 0
O11 O2- 2 i 0.266(2) 0.903(2) 0.550(2) . 1 0
O12 O2- 2 i 0.0690(10) 0.3080(10) 0.575(2) . 1 0
F1 F1- 2 i 0.006(2) 0.005(2) 0.252(2) . 1 0
#End of TTdata_172997-ICSD