
#(C) 2018 by FIZ Karlsruhe - Leibniz Institute for Information Infrastructure.  All rights reserved.
data_23068-ICSD
_database_code_ICSD 23068
_audit_creation_date 1980-01-01
_audit_update_record 2006-04-01
_chemical_name_systematic Selenium
_chemical_formula_structural Se
_chemical_formula_sum Se1
_chemical_name_structure_type Se(gamma)
_chemical_name_mineral Selenium
_exptl_crystal_density_diffrn 5.49
_cell_measurement_pressure 2580000.
_publ_section_title 'Effect of pressure on the atom positions in Se and Te'
loop_
_citation_id
_citation_journal_full
_citation_year
_citation_journal_volume
_citation_page_first
_citation_page_last
_citation_journal_id_ASTM
primary 'Physical Review, Serie 3. B - Solid State (1,1970-17,1977)' 1977 16
4404 4412 PLRBAQ
loop_
_publ_author_name
'Keller, R.'
'Holzapfel, W.B.'
'Schulz, H.'
_cell_length_a 4.052(1)
_cell_length_b 4.052(1)
_cell_length_c 5.038(3)
_cell_angle_alpha 90.
_cell_angle_beta 90.
_cell_angle_gamma 120.
_cell_volume 71.64
_cell_formula_units_Z 3
_symmetry_space_group_name_H-M 'P 31 2 1'
_symmetry_Int_Tables_number 152
_refine_ls_R_factor_all 0.052
loop_
_symmetry_equiv_pos_site_id
_symmetry_equiv_pos_as_xyz
1 'x-y, -y, -z+2/3'
2 '-x, -x+y, -z+1/3'
3 'y, x, -z'
4 '-x+y, -x, z+2/3'
5 '-y, x-y, z+1/3'
6 'x, y, z'
loop_
_atom_type_symbol
_atom_type_oxidation_number
Se0+ 0
loop_
_atom_site_label
_atom_site_type_symbol
_atom_site_symmetry_multiplicity
_atom_site_Wyckoff_symbol
_atom_site_fract_x
_atom_site_fract_y
_atom_site_fract_z
_atom_site_B_iso_or_equiv
_atom_site_occupancy
_atom_site_attached_hydrogens
Se1 Se0+ 3 a 0.2373(24) 0 0.3333 1.8 1. 0
#End of TTdata_23068-ICSD