
#(C) 2018 by FIZ Karlsruhe - Leibniz Institute for Information Infrastructure.  All rights reserved.
data_26891-ICSD
_database_code_ICSD 26891
_audit_creation_date 1980-01-01
_audit_update_record 2005-10-01
_chemical_name_systematic 'Boron arsenate(V)'
_chemical_formula_structural 'B (As O4)'
_chemical_formula_sum 'As1 B1 O4'
_chemical_name_structure_type BPO4
_exptl_crystal_density_diffrn 3.68
_publ_section_title 'Die Kristallstruktur von B P O4 und B As O4'
loop_
_citation_id
_citation_journal_full
_citation_year
_citation_journal_volume
_citation_page_first
_citation_page_last
_citation_journal_id_ASTM
primary

;
Zeitschrift fuer Physikalische Chemie, Abteilung B: Chemie der
Elementarprozesse, Aufbau der Materie
; 1934 24 215 240 ZPCBAL
loop_
_publ_author_name
'Schulze, G.E.R.'
_cell_length_a 4.458(6)
_cell_length_b 4.458(6)
_cell_length_c 6.796(8)
_cell_angle_alpha 90.
_cell_angle_beta 90.
_cell_angle_gamma 90.
_cell_volume 135.06
_cell_formula_units_Z 2
_symmetry_space_group_name_H-M 'I -4'
_symmetry_Int_Tables_number 82
loop_
_symmetry_equiv_pos_site_id
_symmetry_equiv_pos_as_xyz
1 '-y, x, -z'
2 'y, -x, -z'
3 '-x, -y, z'
4 'x, y, z'
5 '-y+1/2, x+1/2, -z+1/2'
6 'y+1/2, -x+1/2, -z+1/2'
7 '-x+1/2, -y+1/2, z+1/2'
8 'x+1/2, y+1/2, z+1/2'
loop_
_atom_type_symbol
_atom_type_oxidation_number
As5+ 5
B3+ 3
O2- -2
loop_
_atom_site_label
_atom_site_type_symbol
_atom_site_symmetry_multiplicity
_atom_site_Wyckoff_symbol
_atom_site_fract_x
_atom_site_fract_y
_atom_site_fract_z
_atom_site_B_iso_or_equiv
_atom_site_occupancy
_atom_site_attached_hydrogens
As1 As5+ 2 a 0 0 0 . 1. 0
B1 B3+ 2 c 0 0.5 0.25 . 1. 0
O1 O2- 8 g 0.16 0.26 0.14 . 1. 0
#End of TTdata_26891-ICSD