
#(C) 2018 by FIZ Karlsruhe - Leibniz Institute for Information Infrastructure.  All rights reserved.
data_27508-ICSD
_database_code_ICSD 27508
_audit_creation_date 1980-01-01
_audit_update_record 2016-02-01
_chemical_name_systematic 'Chromium vanadate'
_chemical_formula_structural 'Cr (V O4)'
_chemical_formula_sum 'Cr1 O4 V1'
_chemical_name_structure_type CrVO4
_exptl_crystal_density_diffrn 4.06
_publ_section_title

;
Antiferromagnetic structure of Cr V O4 and the anhydrous sulfates of divalent
Fe, Ni, and Co
;
loop_
_citation_id
_citation_journal_full
_citation_year
_citation_journal_volume
_citation_page_first
_citation_page_last
_citation_journal_id_ASTM
primary 'Physical Review, Section A (133,1964-188,1969)' 1962 125 1283 1291
PRVAAH
loop_
_publ_author_name
'Frazer, B.C.'
'Brown, P.J.'
_cell_length_a 5.568
_cell_length_b 8.208
_cell_length_c 5.977
_cell_angle_alpha 90.
_cell_angle_beta 90.
_cell_angle_gamma 90.
_cell_volume 273.16
_cell_formula_units_Z 4
_symmetry_space_group_name_H-M 'C m c m'
_symmetry_Int_Tables_number 63
_refine_ls_R_factor_all 0.066
loop_
_symmetry_equiv_pos_site_id
_symmetry_equiv_pos_as_xyz
1 '-x, y, -z+1/2'
2 '-x, -y, z+1/2'
3 '-x, y, z'
4 '-x, -y, -z'
5 'x, -y, z+1/2'
6 'x, y, -z+1/2'
7 'x, -y, -z'
8 'x, y, z'
9 '-x+1/2, y+1/2, -z+1/2'
10 '-x+1/2, -y+1/2, z+1/2'
11 '-x+1/2, y+1/2, z'
12 '-x+1/2, -y+1/2, -z'
13 'x+1/2, -y+1/2, z+1/2'
14 'x+1/2, y+1/2, -z+1/2'
15 'x+1/2, -y+1/2, -z'
16 'x+1/2, y+1/2, z'
loop_
_atom_type_symbol
_atom_type_oxidation_number
Cr3+ 3
V5+ 5
O2- -2
loop_
_atom_site_label
_atom_site_type_symbol
_atom_site_symmetry_multiplicity
_atom_site_Wyckoff_symbol
_atom_site_fract_x
_atom_site_fract_y
_atom_site_fract_z
_atom_site_B_iso_or_equiv
_atom_site_occupancy
_atom_site_attached_hydrogens
Cr1 Cr3+ 4 a 0 0 0 0.2 1. 0
V1 V5+ 4 c 0 0.355(2) 0.25 1. 1. 0
O1 O2- 8 f 0 0.241(3) 0.026(5) 1.7 1. 0
O2 O2- 8 g 0.251(4) 0.475(3) 0.25 2.9 1. 0
#End of TTdata_27508-ICSD