
#(C) 2020 by FIZ Karlsruhe - Leibniz Institute for Information Infrastructure.  All rights reserved.
data_166772-ICSD
_database_code_ICSD 166772
_audit_creation_date 2008-08-01
_audit_update_record 2011-02-01
_chemical_name_common 'Manganese silicide (5/3)'
_chemical_formula_structural 'Mn5 Si3'
_chemical_formula_sum 'Mn5 Si3'
_chemical_name_structure_type Mn5Si3
_chemical_name_mineral Mavlyanovite
_exptl_crystal_density_diffrn 6.02
_citation_title

;
Malyanovite, Mn5 Si3: a new mineral species from a lamproite diatreme, Chatkal
Ridge, Uzbekistan
;
loop_
_citation_id
_citation_journal_full
_citation_year
_citation_journal_volume
_citation_page_first
_citation_page_last
_citation_journal_id_ASTM
primary 'Mineralogical Magazine' 2009 73 43 50 MNLMBB
loop_
_citation_author_citation_id
_citation_author_name
primary 'Yusupov, R.G.'
primary 'Stanley, C.J.'
primary 'Welch, M.D.'
primary 'Spratt, J.'
primary 'Cressey, G.'
primary 'Rumsey, M.S.'
primary 'Seltmann, R.'
primary 'Igamberdiev, E.'
_cell_length_a 6.8971(7)
_cell_length_b 6.8971(7)
_cell_length_c 4.8075(4)
_cell_angle_alpha 90.
_cell_angle_beta 90.
_cell_angle_gamma 120.
_cell_volume 198.05
_cell_formula_units_Z 2
_space_group_name_H-M_alt 'P 63/m c m'
_space_group_IT_number 193
loop_
_space_group_symop_id
_space_group_symop_operation_xyz
1 '-x, -x+y, -z+1/2'
2 'x-y, -y, -z+1/2'
3 'y, x, -z+1/2'
4 '-x+y, -x, -z+1/2'
5 '-y, x-y, -z+1/2'
6 'x, y, -z+1/2'
7 'x, x-y, z+1/2'
8 '-x+y, y, z+1/2'
9 '-y, -x, z+1/2'
10 'x-y, x, z+1/2'
11 'y, -x+y, z+1/2'
12 '-x, -y, z+1/2'
13 'x, x-y, -z'
14 '-x+y, y, -z'
15 '-y, -x, -z'
16 'x-y, x, -z'
17 'y, -x+y, -z'
18 '-x, -y, -z'
19 '-x, -x+y, z'
20 'x-y, -y, z'
21 'y, x, z'
22 '-x+y, -x, z'
23 '-y, x-y, z'
24 'x, y, z'
loop_
_atom_type_symbol
_atom_type_oxidation_number
Mn0+ 0
Si0+ 0
loop_
_atom_site_label
_atom_site_type_symbol
_atom_site_symmetry_multiplicity
_atom_site_Wyckoff_symbol
_atom_site_fract_x
_atom_site_fract_y
_atom_site_fract_z
_atom_site_U_iso_or_equiv
_atom_site_occupancy
Mn1 Mn0+ 4 d 0.3333 0.6667 0 0.0053(3) 1.
Mn2 Mn0+ 6 g 0.23459(9) 0 0.25 0.0073(2) 1.
Si1 Si0+ 6 g 0.59779(15) 0 0.25 0.0066(3) 1.
loop_
_atom_site_aniso_label
_atom_site_aniso_type_symbol
_atom_site_aniso_U_11
_atom_site_aniso_U_22
_atom_site_aniso_U_33
_atom_site_aniso_U_12
_atom_site_aniso_U_13
_atom_site_aniso_U_23
Mn1 Mn0+ 0.0060(3) 0.0060(3) 0.0038(3) 0.0030(2) 0. 0.
Mn2 Mn0+ 0.0071(3) 0.0054(3) 0.0089(3) 0.0027(2) 0. 0.
Si1 Si0+ 0.0057(4) 0.0046(5) 0.0091(5) 0.0023(3) 0. 0.
#End of TTdata_166772-ICSD