
#(C) 2017 by FIZ Karlsruhe - Leibniz Institute for Information Infrastructure.  All rights reserved.
data_79865-ICSD
_database_code_ICSD 79865
_audit_creation_date 1996-10-14
_audit_update_record 2005-10-01
_chemical_name_systematic 'Chromium vanadate - I'
_chemical_formula_structural 'Cr (V O4)'
_chemical_formula_sum 'Cr1 O4 V1'
_chemical_name_structure_type CoMoO4
_exptl_crystal_density_diffrn 3.96
_publ_section_title
'Crystal structure of a new form of chromium(III) vanadate(V), Cr V O4 - I'
loop_
_citation_id
_citation_journal_full
_citation_year
_citation_journal_volume
_citation_page_first
_citation_page_last
_citation_journal_id_ASTM
primary 'European Journal of Solid State Inorganic Chemistry' 1995 32 577 588
EJSCE5
loop_
_publ_author_name
'Touboul, M.'
'Denis, S.'
'Seguin, L.'
_cell_length_a 9.765(1)
_cell_length_b 8.818(3)
_cell_length_c 6.8224(9)
_cell_angle_alpha 90.
_cell_angle_beta 107.62(1)
_cell_angle_gamma 90.
_cell_volume 559.9
_cell_formula_units_Z 8
_symmetry_space_group_name_H-M 'C 1 2/m 1'
_symmetry_Int_Tables_number 12
_refine_ls_R_factor_all 0.061
loop_
_symmetry_equiv_pos_site_id
_symmetry_equiv_pos_as_xyz
1 '-x, y, -z'
2 '-x, -y, -z'
3 'x, -y, z'
4 'x, y, z'
5 '-x+1/2, y+1/2, -z'
6 '-x+1/2, -y+1/2, -z'
7 'x+1/2, -y+1/2, z'
8 'x+1/2, y+1/2, z'
loop_
_atom_type_symbol
_atom_type_oxidation_number
Cr3+ 3
V5+ 5
O2- -2
loop_
_atom_site_label
_atom_site_type_symbol
_atom_site_symmetry_multiplicity
_atom_site_Wyckoff_symbol
_atom_site_fract_x
_atom_site_fract_y
_atom_site_fract_z
_atom_site_B_iso_or_equiv
_atom_site_occupancy
_atom_site_attached_hydrogens
Cr1 Cr3+ 4 h 0 0.1782(7) 0.5 0.1(1) 1. 0
Cr2 Cr3+ 4 i 0.7997(6) 0 0.1452(9) 0.5(1) 1. 0
V1 V5+ 4 g 0 0.2519(7) 0 0.6(2) 1. 0
V2 V5+ 4 i 0.2741(7) 0 0.3966(9) 0.0(1) 1. 0
O1 O2- 4 i 0.359(2) 0.5 0.457(3) 0.3(2) 1. 0
O2 O2- 4 i 0.202(2) 0 0.138(3) 0.3(2) 1. 0
O3 O2- 8 j 0.144(1) 0.351(1) 0.112(2) 0.3(2) 1. 0
O4 O2- 8 j 0.452(1) 0.345(1) 0.204(2) 0.3(2) 1. 0
O5 O2- 8 j 0.365(1) 0.158(1) 0.475(2) 0.3(2) 1. 0
#End of TTdata_79865-ICSD