
#(C) 2018 by FIZ Karlsruhe - Leibniz Institute for Information Infrastructure.  All rights reserved.
data_40896-ICSD
_database_code_ICSD 40896
_audit_creation_date 2000-07-15
_audit_update_record 2012-02-01
_chemical_name_systematic 'Silicon oxide - HT, Gibbs model'
_chemical_formula_structural 'Si O2'
_chemical_formula_sum 'O2 Si1'
_chemical_name_structure_type Tridymite
_chemical_name_mineral 'Tridymite 2H (substructure)'
_exptl_crystal_density_diffrn 2.19
_cell_measurement_temperature 693.
_publ_section_title 'High-order thermal-motion tensor analyses of tridymite'
loop_
_citation_id
_citation_journal_full
_citation_year
_citation_journal_volume
_citation_page_first
_citation_page_last
_citation_journal_id_ASTM
primary 'Zeitschrift fuer Kristallographie (1979-2010)' 1986 177 39 52 ZEKRDZ
loop_
_publ_author_name
'Kihara, K.'
'Matsumoto, T.'
'Imamura, M.'
_cell_length_a 5.047(4)
_cell_length_b 5.047(4)
_cell_length_c 8.262(5)
_cell_angle_alpha 90.
_cell_angle_beta 90.
_cell_angle_gamma 120.
_cell_volume 182.26
_cell_formula_units_Z 4
_symmetry_space_group_name_H-M 'P 63/m m c'
_symmetry_Int_Tables_number 194
_refine_ls_R_factor_all 0.049
loop_
_symmetry_equiv_pos_site_id
_symmetry_equiv_pos_as_xyz
1 'x, x-y, -z+1/2'
2 '-x+y, y, -z+1/2'
3 '-y, -x, -z+1/2'
4 '-x+y, -x, -z+1/2'
5 '-y, x-y, -z+1/2'
6 'x, y, -z+1/2'
7 '-x, -x+y, z+1/2'
8 'x-y, -y, z+1/2'
9 'y, x, z+1/2'
10 'x-y, x, z+1/2'
11 'y, -x+y, z+1/2'
12 '-x, -y, z+1/2'
13 '-x, -x+y, -z'
14 'x-y, -y, -z'
15 'y, x, -z'
16 'x-y, x, -z'
17 'y, -x+y, -z'
18 '-x, -y, -z'
19 'x, x-y, z'
20 '-x+y, y, z'
21 '-y, -x, z'
22 '-x+y, -x, z'
23 '-y, x-y, z'
24 'x, y, z'
loop_
_atom_type_symbol
_atom_type_oxidation_number
Si4+ 4
O2- -2
loop_
_atom_site_label
_atom_site_type_symbol
_atom_site_symmetry_multiplicity
_atom_site_Wyckoff_symbol
_atom_site_fract_x
_atom_site_fract_y
_atom_site_fract_z
_atom_site_B_iso_or_equiv
_atom_site_occupancy
_atom_site_attached_hydrogens
Si1 Si4+ 4 f 0.33333 0.66667 0.4378(3) . 1. 0
O1 O2- 2 c 0.33333 0.66667 0.25 . 1. 0
O2 O2- 6 g 0 0.5 0 . 1. 0
loop_
_atom_site_aniso_label
_atom_site_aniso_type_symbol
_atom_site_aniso_beta_11
_atom_site_aniso_beta_22
_atom_site_aniso_beta_33
_atom_site_aniso_beta_12
_atom_site_aniso_beta_13
_atom_site_aniso_beta_23
Si1 Si4+ 0.0465(13) 0.0465(13) 0.0117(46) 0.0233 0 0
O1 O2- 0.1188(85) 0.1177(85) 0.0123(13) 0.0589 0 0
O2 O2- 0.0603(43) 0.1132(56) 0.0339(19) 0.0302 -.0240(27) -.012
#End of TTdata_40896-ICSD